<number of tasks>
58

<cycle time>
104

<task times>
1 10
2 53
3 41
4 36
5 35
6 17
7 34
8 23
9 14
10 52
11 33
12 34
13 12
14 52
15 12
16 33
17 44
18 7
19 15
20 13
21 29
22 37
23 43
24 23
25 24
26 9
27 16
28 12
29 26
30 22
31 51
32 47
33 34
34 23
35 12
36 52
37 12
38 33
39 44
40 7
41 15
42 13
43 29
44 37
45 43
46 23
47 24
48 9
49 16
50 12
51 26
52 12
53 52
54 12
55 33
56 44
57 7
58 15

<precedence relations>
1,9
2,25
3,21
3,22
4,10
5,36
6,23
6,24
7,43
8,44
9,11
11,13
11,14
11,15
12,17
13,17
14,17
15,17
16,18
17,20
18,19
19,23
20,21
20,25
21,26
21,44
22,27
23,31
24,31
25,38
26,29
27,30
28,32
28,33
29,31
30,34
31,36
32,45
33,35
34,36
35,43
36,37
36,38
37,39
37,40
37,41
38,52
39,43
40,43
41,42
42,43
43,45
44,45
45,46
45,48
45,49
46,47
46,50
47,51
48,55
49,58
50,58
51,52
52,53
53,54
54,55
54,56
55,57
56,57
57,58

<setup times forward>
1,2:9
1,3:5
1,4:6
1,5:5
1,6:5
1,7:3
1,8:7
1,10:6
1,12:5
1,18:7
1,19:3
1,22:4
1,23:3
1,24:4
1,27:8
1,28:5
1,30:8
1,33:5
1,34:8
1,35:11
2,1:9
2,3:4
2,4:3
2,5:4
2,6:4
2,7:6
2,8:2
2,9:9
2,10:3
2,11:2
2,12:4
2,13:6
2,14:2
2,15:2
2,16:9
2,17:5
2,18:2
2,19:6
2,20:1
2,21:1
2,22:5
2,23:6
2,24:5
2,25:7
2,26:4
2,27:1
2,28:4
2,29:4
2,30:1
2,32:9
2,33:4
2,34:1
2,35:2
2,36:7
2,37:7
2,39:2
2,40:2
2,41:7
2,42:2
2,43:2
2,44:2
2,45:2
2,46:6
2,47:6
2,48:6
2,49:3
2,50:6
2,51:8
3,1:5
3,2:4
3,4:1
3,7:2
3,8:2
3,9:5
3,10:1
3,11:2
3,13:2
3,14:2
3,15:2
3,16:5
3,17:1
3,18:2
3,19:2
3,20:3
3,21:3
3,22:1
3,23:2
3,24:1
3,25:3
3,32:5
3,35:6
4,1:6
4,2:3
4,3:1
4,5:1
4,6:1
4,7:3
4,8:1
4,9:6
4,11:1
4,12:1
4,13:3
4,14:1
4,15:1
4,16:6
4,17:2
4,18:1
4,19:3
4,20:2
4,21:2
4,22:2
4,23:3
4,24:2
4,25:4
4,26:1
4,27:2
4,28:1
4,29:1
4,30:2
4,31:3
4,32:6
4,33:1
4,34:2
4,35:5
4,36:4
4,37:4
4,38:3
4,39:1
4,40:5
4,41:4
4,42:5
4,43:5
4,44:1
4,45:5
4,46:3
4,47:3
4,48:3
4,50:3
4,51:5
4,52:5
4,53:5
4,54:5
4,55:6
4,56:6
4,57:6
4,58:6
5,1:5
5,2:4
5,4:1
5,7:2
5,8:2
5,9:5
5,10:1
5,11:2
5,13:2
5,14:2
5,15:2
5,16:5
5,17:1
5,18:2
5,19:2
5,20:3
5,21:3
5,22:1
5,23:2
5,24:1
5,25:3
5,27:3
5,30:3
5,31:4
5,32:5
5,34:3
5,35:6
5,36:3
5,44:2
6,1:5
6,2:4
6,4:1
6,7:2
6,8:2
6,9:5
6,10:1
6,11:2
6,13:2
6,14:2
6,15:2
6,16:5
6,17:1
6,18:2
6,19:2
6,20:3
6,21:3
6,22:1
6,23:2
6,24:1
6,25:3
6,27:3
6,30:3
6,32:5
6,34:3
6,35:6
6,44:2
7,1:3
7,2:6
7,3:2
7,4:3
7,5:2
7,6:2
7,8:4
7,9:3
7,10:3
7,11:4
7,12:2
7,14:4
7,15:4
7,16:3
7,17:1
7,18:4
7,20:5
7,21:5
7,22:1
7,24:1
7,25:1
7,26:2
7,27:5
7,28:2
7,29:2
7,30:5
7,31:6
7,32:3
7,33:2
7,34:5
7,35:8
7,36:1
7,37:1
7,39:4
7,40:8
7,41:1
7,42:8
7,43:8
7,44:4
8,1:7
8,2:2
8,3:2
8,4:1
8,5:2
8,6:2
8,7:4
8,9:7
8,10:1
8,12:2
8,13:4
8,16:7
8,17:3
8,19:4
8,20:1
8,21:1
8,22:3
8,23:4
8,24:3
8,25:5
8,26:2
8,27:1
8,28:2
8,29:2
8,30:1
8,31:2
8,32:7
8,33:2
8,34:1
8,35:4
8,36:5
8,37:5
8,38:4
8,40:4
8,41:5
8,42:4
8,43:4
9,2:9
9,3:5
9,4:6
9,5:5
9,6:5
9,7:3
9,8:7
9,10:6
9,11:7
9,12:5
9,18:7
9,19:3
9,22:4
9,23:3
9,24:4
9,27:8
9,28:5
9,30:8
9,33:5
9,34:8
9,35:11
10,1:6
10,2:3
10,3:1
10,5:1
10,6:1
10,7:3
10,8:1
10,9:6
10,11:1
10,12:1
10,13:3
10,14:1
10,15:1
10,16:6
10,17:2
10,18:1
10,19:3
10,20:2
10,21:2
10,22:2
10,23:3
10,24:2
10,25:4
10,26:1
10,27:2
10,28:1
10,29:1
10,30:2
10,31:3
10,32:6
10,33:1
10,34:2
10,35:5
10,36:4
10,37:4
10,38:3
10,39:1
10,40:5
10,41:4
10,42:5
10,43:5
10,44:1
10,45:5
10,46:3
10,47:3
10,48:3
10,50:3
10,51:5
10,52:5
10,53:5
10,54:5
10,55:6
10,56:6
10,57:6
10,58:6
11,2:2
11,3:2
11,4:1
11,5:2
11,6:2
11,7:4
11,10:1
11,12:2
11,13:4
11,16:7
11,19:4
11,22:3
11,23:4
11,24:3
11,27:1
11,28:2
11,30:1
11,32:7
11,33:2
11,34:1
11,35:4
12,1:5
12,2:4
12,4:1
12,7:2
12,8:2
12,9:5
12,10:1
12,11:2
12,13:2
12,14:2
12,15:2
12,16:5
12,17:1
12,18:2
12,19:2
12,22:1
12,23:2
12,24:1
12,27:3
12,30:3
12,32:5
12,34:3
12,35:6
13,2:6
13,3:2
13,4:3
13,5:2
13,6:2
13,8:4
13,10:3
13,12:2
13,14:4
13,15:4
13,16:3
13,17:1
13,18:4
13,22:1
13,24:1
13,27:5
13,28:2
13,30:5
13,32:3
13,33:2
13,34:5
13,35:8
14,2:2
14,3:2
14,4:1
14,5:2
14,6:2
14,7:4
14,10:1
14,12:2
14,13:4
14,16:7
14,17:3
14,19:4
14,22:3
14,23:4
14,24:3
14,27:1
14,28:2
14,30:1
14,32:7
14,33:2
14,34:1
14,35:4
15,2:2
15,3:2
15,4:1
15,5:2
15,6:2
15,7:4
15,10:1
15,12:2
15,13:4
15,16:7
15,17:3
15,19:4
15,22:3
15,23:4
15,24:3
15,27:1
15,28:2
15,30:1
15,32:7
15,33:2
15,34:1
15,35:4
16,2:9
16,3:5
16,4:6
16,5:5
16,6:5
16,7:3
16,8:7
16,10:6
16,11:7
16,12:5
16,13:3
16,14:7
16,15:7
16,17:4
16,18:7
16,20:8
16,21:8
16,22:4
16,24:4
16,25:2
16,26:5
16,27:8
16,28:5
16,29:5
16,30:8
16,33:5
16,34:8
16,35:11
16,44:7
17,2:5
17,3:1
17,4:2
17,5:1
17,6:1
17,7:1
17,8:3
17,10:2
17,16:4
17,18:3
17,19:1
17,20:4
17,23:1
17,27:4
17,28:1
17,30:4
17,32:4
17,33:1
17,34:4
17,35:7
18,1:7
18,2:2
18,3:2
18,4:1
18,5:2
18,6:2
18,7:4
18,9:7
18,10:1
18,12:2
18,13:4
18,17:3
18,19:4
18,20:1
18,21:1
18,22:3
18,24:3
18,25:5
18,26:2
18,27:1
18,28:2
18,29:2
18,30:1
18,32:7
18,33:2
18,34:1
18,35:4
19,1:3
19,2:6
19,3:2
19,4:3
19,5:2
19,6:2
19,8:4
19,9:3
19,10:3
19,11:4
19,12:2
19,14:4
19,15:4
19,17:1
19,20:5
19,21:5
19,22:1
19,24:1
19,25:1
19,26:2
19,27:5
19,28:2
19,29:2
19,30:5
19,32:3
19,33:2
19,34:5
19,35:8
19,44:4
20,2:1
20,3:3
20,4:2
20,5:3
20,6:3
20,7:5
20,8:1
20,10:2
20,16:8
20,18:1
20,19:5
20,22:4
20,23:5
20,24:4
20,25:6
20,28:3
20,32:8
20,33:3
20,35:3
21,2:1
21,4:2
21,5:3
21,6:3
21,7:5
21,8:1
21,10:2
21,16:8
21,18:1
21,19:5
21,22:4
21,23:5
21,24:4
21,25:6
21,26:3
21,28:3
21,32:8
21,33:3
21,35:3
21,44:1
22,1:4
22,2:5
22,4:2
22,5:1
22,6:1
22,7:1
22,8:3
22,9:4
22,10:2
22,11:3
22,12:1
22,13:1
22,14:3
22,15:3
22,16:4
22,18:3
22,19:1
22,20:4
22,21:4
22,23:1
22,25:2
22,26:1
22,27:4
22,28:1
22,29:1
22,31:5
22,32:4
22,33:1
22,35:7
22,44:3
23,1:3
23,2:6
23,3:2
23,4:3
23,5:2
23,8:4
23,9:3
23,10:3
23,11:4
23,12:2
23,14:4
23,15:4
23,17:1
23,20:5
23,21:5
23,22:1
23,24:1
23,25:1
23,26:2
23,27:5
23,28:2
23,29:2
23,30:5
23,31:6
23,32:3
23,33:2
23,34:5
23,35:8
23,44:4
24,1:4
24,2:5
24,3:1
24,4:2
24,5:1
24,7:1
24,8:3
24,9:4
24,10:2
24,11:3
24,12:1
24,13:1
24,14:3
24,15:3
24,16:4
24,18:3
24,19:1
24,20:4
24,21:4
24,23:1
24,25:2
24,26:1
24,27:4
24,28:1
24,29:1
24,30:4
24,31:5
24,32:4
24,33:1
24,34:4
24,35:7
24,44:3
25,3:3
25,4:4
25,5:3
25,6:3
25,7:1
25,8:5
25,10:4
25,16:2
25,18:5
25,19:1
25,21:6
25,22:2
25,23:1
25,24:2
25,26:3
25,27:6
25,28:3
25,29:3
25,30:6
25,31:7
25,32:2
25,33:3
25,34:6
25,35:9
25,38:1
25,39:5
25,40:9
25,42:9
25,43:9
25,44:5
25,45:9
25,46:1
25,47:1
25,48:1
25,49:4
25,50:1
25,51:1
26,2:4
26,4:1
26,7:2
26,8:2
26,10:1
26,16:5
26,18:2
26,19:2
26,22:1
26,23:2
26,24:1
26,25:3
26,27:3
26,30:3
26,32:5
26,34:3
26,35:6
26,44:2
27,1:8
27,2:1
27,4:2
27,5:3
27,6:3
27,7:5
27,8:1
27,9:8
27,10:2
27,11:1
27,12:3
27,13:5
27,14:1
27,15:1
27,16:8
27,17:4
27,18:1
27,19:5
27,23:5
27,24:4
27,25:6
27,26:3
27,28:3
27,29:3
27,31:1
27,32:8
27,33:3
27,35:3
27,44:1
28,1:5
28,2:4
28,4:1
28,7:2
28,8:2
28,9:5
28,10:1
28,11:2
28,13:2
28,14:2
28,15:2
28,16:5
28,17:1
28,18:2
28,19:2
28,20:3
28,21:3
28,22:1
28,23:2
28,24:1
28,25:3
28,27:3
28,30:3
28,31:4
28,32:5
28,34:3
28,36:3
28,37:3
28,38:2
28,39:2
28,40:6
28,41:3
28,42:6
28,44:2
29,2:4
29,4:1
29,7:2
29,8:2
29,10:1
29,16:5
29,18:2
29,19:2
29,22:1
29,23:2
29,24:1
29,25:3
29,27:3
29,30:3
29,31:4
29,32:5
29,34:3
29,35:6
29,44:2
30,1:8
30,2:1
30,4:2
30,5:3
30,6:3
30,7:5
30,8:1
30,9:8
30,10:2
30,11:1
30,12:3
30,13:5
30,14:1
30,15:1
30,16:8
30,17:4
30,18:1
30,19:5
30,23:5
30,24:4
30,25:6
30,26:3
30,28:3
30,29:3
30,31:1
30,32:8
30,33:3
30,35:3
30,44:1
31,4:3
31,5:4
31,7:6
31,8:2
31,10:3
31,22:5
31,25:7
31,27:1
31,28:4
31,30:1
31,32:9
31,33:4
31,34:1
31,35:2
31,36:7
31,44:2
32,2:9
32,3:5
32,4:6
32,5:5
32,6:5
32,7:3
32,8:7
32,10:6
32,11:7
32,12:5
32,13:3
32,14:7
32,15:7
32,17:4
32,18:7
32,19:3
32,20:8
32,21:8
32,22:4
32,23:3
32,24:4
32,25:2
32,26:5
32,27:8
32,29:5
32,30:8
32,31:9
32,33:5
32,34:8
32,35:11
32,36:2
32,37:2
32,38:3
32,39:7
32,40:11
32,41:2
32,42:11
32,43:11
32,44:7
32,45:11
33,1:5
33,2:4
33,4:1
33,7:2
33,8:2
33,9:5
33,10:1
33,11:2
33,13:2
33,14:2
33,15:2
33,16:5
33,17:1
33,18:2
33,19:2
33,20:3
33,21:3
33,22:1
33,23:2
33,24:1
33,25:3
33,27:3
33,30:3
33,31:4
33,32:5
33,34:3
33,35:6
33,36:3
33,37:3
33,38:2
33,39:2
33,40:6
33,41:3
33,42:6
33,44:2
34,1:8
34,2:1
34,4:2
34,5:3
34,6:3
34,7:5
34,8:1
34,9:8
34,10:2
34,11:1
34,12:3
34,13:5
34,14:1
34,15:1
34,16:8
34,17:4
34,18:1
34,19:5
34,23:5
34,24:4
34,25:6
34,26:3
34,28:3
34,29:3
34,31:1
34,32:8
34,33:3
34,35:3
34,36:6
34,44:1
35,1:11
35,2:2
35,3:6
35,4:5
35,5:6
35,6:6
35,7:8
35,8:4
35,9:11
35,10:5
35,11:4
35,12:6
35,13:8
35,14:4
35,15:4
35,16:11
35,17:7
35,18:4
35,19:8
35,20:3
35,21:3
35,22:7
35,23:8
35,24:7
35,25:9
35,26:6
35,27:3
35,29:6
35,30:3
35,31:2
35,32:11
35,34:3
35,36:9
35,37:9
35,38:8
35,39:4
35,41:9
35,44:4
36,2:7
36,4:4
36,7:1
36,8:5
36,10:4
36,28:3
36,32:2
36,33:3
36,35:9
36,38:1
36,44:5
37,2:7
37,4:4
37,7:1
37,8:5
37,10:4
37,28:3
37,32:2
37,33:3
37,35:9
37,38:1
37,39:5
37,40:9
37,44:5
38,4:3
38,8:4
38,10:3
38,28:2
38,32:3
38,33:2
38,35:8
38,37:1
38,39:4
38,40:8
38,41:1
38,42:8
38,43:8
38,44:4
38,45:8
38,49:3
38,51:2
38,52:2
39,2:2
39,4:1
39,7:4
39,10:1
39,25:5
39,28:2
39,32:7
39,33:2
39,35:4
39,38:4
39,40:4
39,41:5
39,42:4
39,43:4
40,2:2
40,4:5
40,7:8
40,8:4
40,10:5
40,25:9
40,28:6
40,32:11
40,33:6
40,38:8
40,39:4
40,41:9
40,44:4
41,2:7
41,4:4
41,7:1
41,8:5
41,10:4
41,28:3
41,32:2
41,33:3
41,35:9
41,38:1
41,39:5
41,40:9
41,42:9
41,44:5
42,2:2
42,4:5
42,7:8
42,8:4
42,10:5
42,25:9
42,28:6
42,32:11
42,33:6
42,38:8
42,39:4
42,44:4
43,2:2
43,4:5
43,8:4
43,10:5
43,25:9
43,32:11
43,38:8
43,44:4
44,2:2
44,4:1
44,5:2
44,6:2
44,7:4
44,10:1
44,16:7
44,19:4
44,22:3
44,23:4
44,24:3
44,25:5
44,26:2
44,27:1
44,28:2
44,29:2
44,30:1
44,31:2
44,32:7
44,33:2
44,34:1
44,35:4
44,36:5
44,37:5
44,38:4
44,40:4
44,41:5
44,42:4
44,43:4
44,45:4
45,2:2
45,4:5
45,10:5
45,25:9
45,38:8
45,46:8
45,48:8
45,49:5
46,2:6
46,4:3
46,10:3
46,25:1
46,49:3
47,2:6
47,4:3
47,10:3
47,25:1
47,49:3
47,51:2
48,2:6
48,4:3
48,10:3
48,25:1
48,49:3
48,51:2
48,52:2
48,53:2
48,54:2
48,55:9
48,56:9
49,2:3
49,25:4
49,38:3
49,46:3
49,47:3
49,48:3
49,50:3
49,51:5
49,52:5
49,53:5
49,54:5
49,55:6
49,56:6
49,57:6
49,58:6
50,2:6
50,4:3
50,10:3
50,25:1
50,49:3
50,51:2
50,52:2
50,53:2
50,54:2
50,55:9
50,56:9
50,57:9
50,58:9
51,2:8
51,4:5
51,10:5
51,25:1
51,38:2
51,48:2
51,49:5
51,50:2
52,4:5
52,10:5
52,48:2
52,49:5
52,50:2
53,4:5
53,10:5
53,48:2
53,49:5
53,50:2
54,4:5
54,10:5
54,48:2
54,49:5
54,50:2
54,55:11
54,56:11
55,4:6
55,10:6
55,49:6
55,50:9
56,4:6
56,10:6
56,48:9
56,49:6
56,50:9
57,4:6
57,10:6
57,49:6
57,50:9
58,4:6
58,10:6

<setup times backward>
1,2:9
1,3:5
1,4:6
1,5:5
1,6:5
1,7:3
1,8:7
1,10:6
1,12:5
1,18:7
1,19:3
1,22:4
1,23:3
1,24:4
1,27:8
1,28:5
1,30:8
1,33:5
1,34:8
1,35:11
2,35:2
2,40:2
2,42:2
2,43:2
2,45:2
3,2:4
3,4:1
3,8:2
3,10:1
3,11:2
3,14:2
3,15:2
3,18:2
3,20:3
3,35:6
4,2:3
4,8:1
4,11:1
4,14:1
4,15:1
4,18:1
4,20:2
4,21:2
4,27:2
4,30:2
4,31:3
4,34:2
4,35:5
4,39:1
4,40:5
4,42:5
4,43:5
4,44:1
4,45:5
4,55:6
4,56:6
4,57:6
4,58:6
5,2:4
5,4:1
5,8:2
5,10:1
5,11:2
5,14:2
5,15:2
5,18:2
5,20:3
5,21:3
5,27:3
5,30:3
5,31:4
5,34:3
5,35:6
5,44:2
6,2:4
6,4:1
6,8:2
6,10:1
6,11:2
6,14:2
6,15:2
6,18:2
6,20:3
6,21:3
6,27:3
6,30:3
6,34:3
6,35:6
6,44:2
7,2:6
7,3:2
7,4:3
7,5:2
7,6:2
7,8:4
7,10:3
7,11:4
7,12:2
7,14:4
7,15:4
7,17:1
7,18:4
7,20:5
7,21:5
7,22:1
7,24:1
7,26:2
7,27:5
7,28:2
7,29:2
7,30:5
7,31:6
7,33:2
7,34:5
7,35:8
7,39:4
7,40:8
7,42:8
7,44:4
8,2:2
8,20:1
8,21:1
8,27:1
8,30:1
8,31:2
8,34:1
8,35:4
8,40:4
8,42:4
8,43:4
9,2:9
9,3:5
9,4:6
9,5:5
9,6:5
9,7:3
9,8:7
9,10:6
9,12:5
9,18:7
9,19:3
9,22:4
9,23:3
9,24:4
9,27:8
9,28:5
9,30:8
9,33:5
9,34:8
9,35:11
10,2:3
10,8:1
10,11:1
10,14:1
10,15:1
10,18:1
10,20:2
10,21:2
10,27:2
10,30:2
10,31:3
10,34:2
10,35:5
10,39:1
10,40:5
10,42:5
10,43:5
10,44:1
10,45:5
10,55:6
10,56:6
10,57:6
10,58:6
11,2:2
11,27:1
11,30:1
11,34:1
11,35:4
12,2:4
12,4:1
12,8:2
12,10:1
12,11:2
12,14:2
12,15:2
12,18:2
12,27:3
12,30:3
12,34:3
12,35:6
13,2:6
13,3:2
13,4:3
13,5:2
13,6:2
13,8:4
13,10:3
13,11:4
13,12:2
13,14:4
13,15:4
13,18:4
13,22:1
13,24:1
13,27:5
13,28:2
13,30:5
13,33:2
13,34:5
13,35:8
14,2:2
14,27:1
14,30:1
14,34:1
14,35:4
15,2:2
15,27:1
15,30:1
15,34:1
15,35:4
16,2:9
16,3:5
16,4:6
16,5:5
16,6:5
16,7:3
16,8:7
16,10:6
16,11:7
16,12:5
16,13:3
16,14:7
16,15:7
16,17:4
16,20:8
16,21:8
16,22:4
16,24:4
16,25:2
16,26:5
16,27:8
16,28:5
16,29:5
16,30:8
16,33:5
16,34:8
16,35:11
16,44:7
17,2:5
17,3:1
17,4:2
17,5:1
17,6:1
17,8:3
17,10:2
17,11:3
17,12:1
17,14:3
17,15:3
17,18:3
17,27:4
17,28:1
17,30:4
17,33:1
17,34:4
17,35:7
18,2:2
18,20:1
18,21:1
18,27:1
18,30:1
18,34:1
18,35:4
19,2:6
19,3:2
19,4:3
19,5:2
19,6:2
19,8:4
19,10:3
19,11:4
19,12:2
19,14:4
19,15:4
19,17:1
19,18:4
19,20:5
19,21:5
19,22:1
19,24:1
19,26:2
19,27:5
19,28:2
19,29:2
19,30:5
19,33:2
19,34:5
19,35:8
19,44:4
20,2:1
20,35:3
21,2:1
21,35:3
22,2:5
22,3:1
22,4:2
22,5:1
22,6:1
22,8:3
22,10:2
22,11:3
22,12:1
22,14:3
22,15:3
22,18:3
22,20:4
22,21:4
22,26:1
22,28:1
22,29:1
22,31:5
22,33:1
22,35:7
22,44:3
23,2:6
23,3:2
23,4:3
23,5:2
23,6:2
23,8:4
23,10:3
23,11:4
23,12:2
23,14:4
23,15:4
23,17:1
23,18:4
23,20:5
23,21:5
23,22:1
23,24:1
23,26:2
23,27:5
23,28:2
23,29:2
23,30:5
23,33:2
23,34:5
23,35:8
23,44:4
24,2:5
24,3:1
24,4:2
24,5:1
24,6:1
24,8:3
24,10:2
24,11:3
24,12:1
24,14:3
24,15:3
24,18:3
24,20:4
24,21:4
24,26:1
24,27:4
24,28:1
24,29:1
24,30:4
24,33:1
24,34:4
24,35:7
24,44:3
25,2:7
25,3:3
25,4:4
25,5:3
25,6:3
25,7:1
25,8:5
25,10:4
25,11:5
25,12:3
25,13:1
25,14:5
25,15:5
25,17:2
25,18:5
25,19:1
25,20:6
25,21:6
25,22:2
25,23:1
25,24:2
25,26:3
25,27:6
25,28:3
25,29:3
25,30:6
25,31:7
25,33:3
25,34:6
25,35:9
25,39:5
25,40:9
25,42:9
25,43:9
25,44:5
25,45:9
25,46:1
25,47:1
25,48:1
25,49:4
25,50:1
26,2:4
26,4:1
26,8:2
26,10:1
26,11:2
26,14:2
26,15:2
26,18:2
26,20:3
26,21:3
26,27:3
26,30:3
26,34:3
26,35:6
26,44:2
27,2:1
27,31:1
27,35:3
28,2:4
28,4:1
28,8:2
28,10:1
28,11:2
28,14:2
28,15:2
28,18:2
28,20:3
28,21:3
28,27:3
28,30:3
28,31:4
28,34:3
28,39:2
28,40:6
28,42:6
28,44:2
29,2:4
29,4:1
29,8:2
29,10:1
29,11:2
29,14:2
29,15:2
29,18:2
29,20:3
29,21:3
29,27:3
29,30:3
29,34:3
29,35:6
29,44:2
30,2:1
30,31:1
30,35:3
31,35:2
32,2:9
32,3:5
32,4:6
32,5:5
32,6:5
32,7:3
32,8:7
32,10:6
32,11:7
32,12:5
32,13:3
32,14:7
32,15:7
32,17:4
32,18:7
32,19:3
32,20:8
32,21:8
32,22:4
32,23:3
32,24:4
32,25:2
32,26:5
32,27:8
32,28:5
32,29:5
32,30:8
32,31:9
32,33:5
32,34:8
32,35:11
32,36:2
32,37:2
32,38:3
32,39:7
32,40:11
32,41:2
32,42:11
32,43:11
32,44:7
33,2:4
33,4:1
33,8:2
33,10:1
33,11:2
33,14:2
33,15:2
33,18:2
33,20:3
33,21:3
33,27:3
33,30:3
33,31:4
33,34:3
33,39:2
33,40:6
33,42:6
33,44:2
34,2:1
34,31:1
34,35:3
36,2:7
36,3:3
36,4:4
36,5:3
36,6:3
36,7:1
36,8:5
36,10:4
36,11:5
36,12:3
36,13:1
36,14:5
36,15:5
36,17:2
36,18:5
36,19:1
36,20:6
36,21:6
36,22:2
36,23:1
36,24:2
36,26:3
36,27:6
36,28:3
36,29:3
36,30:6
36,31:7
36,33:3
36,34:6
36,35:9
36,44:5
37,2:7
37,3:3
37,4:4
37,5:3
37,6:3
37,7:1
37,8:5
37,10:4
37,11:5
37,12:3
37,13:1
37,14:5
37,15:5
37,17:2
37,18:5
37,19:1
37,20:6
37,21:6
37,22:2
37,23:1
37,24:2
37,26:3
37,27:6
37,28:3
37,29:3
37,30:6
37,31:7
37,33:3
37,34:6
37,35:9
37,38:1
37,44:5
38,2:6
38,3:2
38,4:3
38,5:2
38,6:2
38,8:4
38,10:3
38,11:4
38,12:2
38,14:4
38,15:4
38,17:1
38,18:4
38,20:5
38,21:5
38,22:1
38,24:1
38,26:2
38,27:5
38,28:2
38,29:2
38,30:5
38,31:6
38,33:2
38,34:5
38,35:8
38,39:4
38,40:8
38,42:8
38,43:8
38,44:4
38,45:8
38,49:3
39,2:2
39,20:1
39,21:1
39,27:1
39,30:1
39,31:2
39,34:1
39,35:4
39,40:4
39,42:4
41,2:7
41,3:3
41,4:4
41,5:3
41,6:3
41,7:1
41,8:5
41,10:4
41,11:5
41,12:3
41,13:1
41,14:5
41,15:5
41,17:2
41,18:5
41,19:1
41,20:6
41,21:6
41,22:2
41,23:1
41,24:2
41,26:3
41,27:6
41,28:3
41,29:3
41,30:6
41,31:7
41,33:3
41,34:6
41,35:9
41,38:1
41,39:5
41,40:9
41,44:5
44,2:2
44,20:1
44,21:1
44,27:1
44,30:1
44,31:2
44,34:1
44,35:4
44,40:4
44,42:4
44,43:4
46,2:6
46,3:2
46,4:3
46,5:2
46,6:2
46,8:4
46,10:3
46,11:4
46,12:2
46,14:4
46,15:4
46,17:1
46,18:4
46,20:5
46,21:5
46,22:1
46,24:1
46,26:2
46,27:5
46,28:2
46,29:2
46,30:5
46,31:6
46,33:2
46,34:5
46,35:8
46,39:4
46,40:8
46,42:8
46,43:8
46,44:4
46,45:8
46,49:3
47,2:6
47,3:2
47,4:3
47,5:2
47,6:2
47,8:4
47,10:3
47,11:4
47,12:2
47,14:4
47,15:4
47,17:1
47,18:4
47,20:5
47,21:5
47,22:1
47,24:1
47,26:2
47,27:5
47,28:2
47,29:2
47,30:5
47,31:6
47,33:2
47,34:5
47,35:8
47,39:4
47,40:8
47,42:8
47,43:8
47,44:4
47,45:8
47,49:3
48,2:6
48,3:2
48,4:3
48,5:2
48,6:2
48,8:4
48,10:3
48,11:4
48,12:2
48,14:4
48,15:4
48,17:1
48,18:4
48,20:5
48,21:5
48,22:1
48,24:1
48,26:2
48,27:5
48,28:2
48,29:2
48,30:5
48,31:6
48,33:2
48,34:5
48,35:8
48,39:4
48,40:8
48,42:8
48,43:8
48,44:4
48,45:8
48,49:3
48,56:9
49,2:3
49,8:1
49,11:1
49,14:1
49,15:1
49,18:1
49,20:2
49,21:2
49,27:2
49,30:2
49,31:3
49,34:2
49,35:5
49,39:1
49,40:5
49,42:5
49,43:5
49,44:1
49,45:5
49,55:6
49,56:6
49,57:6
50,2:6
50,3:2
50,4:3
50,5:2
50,6:2
50,8:4
50,10:3
50,11:4
50,12:2
50,14:4
50,15:4
50,17:1
50,18:4
50,20:5
50,21:5
50,22:1
50,24:1
50,26:2
50,27:5
50,28:2
50,29:2
50,30:5
50,31:6
50,33:2
50,34:5
50,35:8
50,39:4
50,40:8
50,42:8
50,43:8
50,44:4
50,45:8
50,49:3
50,55:9
50,56:9
50,57:9
51,2:8
51,3:4
51,4:5
51,5:4
51,6:4
51,7:2
51,8:6
51,10:5
51,11:6
51,12:4
51,13:2
51,14:6
51,15:6
51,17:3
51,18:6
51,19:2
51,20:7
51,21:7
51,22:3
51,23:2
51,24:3
51,25:1
51,26:4
51,27:7
51,28:4
51,29:4
51,30:7
51,31:8
51,33:4
51,34:7
51,35:10
51,36:1
51,37:1
51,38:2
51,39:6
51,40:10
51,41:1
51,42:10
51,43:10
51,44:6
51,45:10
51,46:2
51,47:2
51,48:2
51,49:5
51,50:2
52,2:8
52,3:4
52,4:5
52,5:4
52,6:4
52,7:2
52,8:6
52,10:5
52,11:6
52,12:4
52,13:2
52,14:6
52,15:6
52,17:3
52,18:6
52,19:2
52,20:7
52,21:7
52,22:3
52,23:2
52,24:3
52,25:1
52,26:4
52,27:7
52,28:4
52,29:4
52,30:7
52,31:8
52,33:4
52,34:7
52,35:10
52,36:1
52,37:1
52,38:2
52,39:6
52,40:10
52,41:1
52,42:10
52,43:10
52,44:6
52,45:10
52,46:2
52,47:2
52,48:2
52,49:5
52,50:2
53,2:8
53,3:4
53,4:5
53,5:4
53,6:4
53,7:2
53,8:6
53,10:5
53,11:6
53,12:4
53,13:2
53,14:6
53,15:6
53,17:3
53,18:6
53,19:2
53,20:7
53,21:7
53,22:3
53,23:2
53,24:3
53,25:1
53,26:4
53,27:7
53,28:4
53,29:4
53,30:7
53,31:8
53,33:4
53,34:7
53,35:10
53,36:1
53,37:1
53,38:2
53,39:6
53,40:10
53,41:1
53,42:10
53,43:10
53,44:6
53,45:10
53,46:2
53,47:2
53,48:2
53,49:5
53,50:2
54,2:8
54,3:4
54,4:5
54,5:4
54,6:4
54,7:2
54,8:6
54,10:5
54,11:6
54,12:4
54,13:2
54,14:6
54,15:6
54,17:3
54,18:6
54,19:2
54,20:7
54,21:7
54,22:3
54,23:2
54,24:3
54,25:1
54,26:4
54,27:7
54,28:4
54,29:4
54,30:7
54,31:8
54,33:4
54,34:7
54,35:10
54,36:1
54,37:1
54,38:2
54,39:6
54,40:10
54,41:1
54,42:10
54,43:10
54,44:6
54,45:10
54,46:2
54,47:2
54,48:2
54,49:5
54,50:2

<end>

<optimal SALBP-1 value>
15


<rand seed>
467321153

<Lower Bounds>
Lm1=15
Lms1=15
Lm2=3
Lm3=9
Lm4=15
Best=15

<Optimal Stations (Iterations: 10)>
18
